%nprocshared=4
%mem=16000MB
#p wb97xd/def2TZVP scf(xqc) scfcyc=999 force

Template file

 0 2
 Ag	0.000000    0.000000    0.000000
 Ag	0.000000    0.000000    2.966493
 Ag	2.796211    0.000000    3.871104
 Ag	2.028319   -1.613681    1.471256
 Ag	2.028607    1.602399    1.470222
 Ag	4.533901   -0.000132    1.466751
 Ag	2.805443   -0.083584   -0.930238
 C	2.996828    3.227751   -1.563858
 O	2.742780    4.084693   -0.789002
 O	3.249219    2.358203   -2.333680

