# Initialization
print "Starting lammps"
print "--------------------"
print ""
units		real       # units real --> fs,A,atm
boundary	p p p   # boundary conditions pp: periodic, s:non periodic 
atom_style	full       # atom style --> check docs
#creating atoms in a lattice
#Adding the potntial and creating bonds
read_data structure.dat #add append offset 2 1 1 1 1 shift 5 5 5 # extra/atom/types 1
include potential.inc

#fix Agf Ag  rigid/small molecule

timestep  0.00000001
variable e equal 1
thermo_style custom step time etotal pe ke  press temp density
thermo_modify lost error
thermo $e

dump nvt_dump all custom $e forces.lammpstrj id type x y z vx vy vz  fx fy fz
dump_modify nvt_dump sort id

#minimize 1.0e-4 1.0e-6 100 1000




#velocity all create 300 4238 rot yes dist gaussian
fix equilibrator_nvt  all nvt temp 1.0 1.0 $(100.0*dt)
run 1

print "Done NVT simulation"
