# Initialization
print "Starting lammps"
print "--------------------"
print ""
units		real       # units real --> fs,A,atm
boundary	p p p   # boundary conditions pp: periodic, s:non periodic 
atom_style	full       # atom style --> check docs
#creating atoms in a lattice
include lattice_SO2.inc
#Adding the potntial and creating bonds
include potential_SO2.inc

#include potential_SO2_kspace.inc

write_dump  all custom  create.lammpstrj id type x y z  mass
print "Created the system"
timestep  1

thermo_style custom step time etotal pe ke  press temp density
thermo_modify lost error
thermo 10000

dump nvt_dump all custom 10000 SO2T300.lammpstrj id type x y z vx vy vz  fx fy fz
dump_modify nvt_dump sort id


velocity all create 300 4238 rot yes dist gaussian
fix equilibrator_nvt  all nvt temp 300.0 300.0 $(100.0*dt)
run 50000000
#fix equilibrator all npt temp 300 300 $(100*dt) iso 1.0 1.0 $(1000*dt) drag 1.0  

unfix equilibrator_nvt


print "Done NVT"
